p edge 50 129 10
v 4 5 22 31 45
v 7 7 20 24 28 29 40 50
v 4 12 13 26 43
v 3 15 16 19
v 4 6 25 32 47
v 9 1 3 8 17 21 35 36 42 44
v 4 4 9 18 34
v 5 10 23 30 37 38
v 7 2 11 27 39 41 46 48
v 3 14 33 49
e 1 4
e 1 7
e 1 16
e 1 23
e 1 49
e 2 3
e 2 4
e 2 7
e 2 10
e 2 19
e 2 20
e 2 35
e 2 37
e 2 38
e 2 50
e 3 7
e 3 12
e 3 13
e 3 17
e 3 23
e 3 24
e 3 35
e 3 48
e 4 9
e 4 13
e 4 14
e 4 30
e 4 33
e 4 40
e 4 45
e 4 50
e 5 10
e 5 25
e 6 21
e 6 46
e 6 47
e 7 28
e 7 47
e 8 10
e 9 20
e 9 24
e 9 39
e 10 16
e 10 19
e 10 30
e 10 37
e 10 49
e 11 26
e 11 42
e 11 47
e 11 49
e 12 40
e 12 50
e 13 46
e 13 48
e 13 50
e 14 30
e 14 31
e 14 36
e 14 50
e 15 23
e 15 28
e 16 25
e 16 47
e 16 48
e 17 21
e 17 27
e 17 32
e 17 38
e 17 48
e 18 24
e 18 29
e 18 37
e 18 48
e 19 22
e 19 23
e 19 31
e 19 33
e 19 44
e 20 25
e 20 26
e 20 30
e 20 33
e 21 29
e 21 31
e 21 35
e 21 44
e 21 49
e 22 34
e 22 37
e 22 39
e 23 27
e 23 33
e 23 39
e 23 44
e 24 31
e 24 47
e 25 31
e 25 32
e 25 43
e 25 47
e 26 28
e 26 35
e 26 46
e 26 50
e 27 35
e 27 37
e 27 49
e 28 31
e 28 32
e 28 41
e 29 38
e 29 43
e 30 33
e 30 42
e 33 45
e 34 45
e 35 40
e 35 42
e 35 50
e 36 50
e 37 50
e 39 40
e 41 43
e 41 49
e 41 50
e 42 48
e 46 50
e 49 50
